#Put Keywords Here, check Charge and Multiplicity.

 

0  1
C          -6.91301         1.45070         0.00000
C          -5.09292         1.16559         0.00000
C          -7.78131         3.96635        -0.00000
C          -6.27848         5.12356        -0.00000
C          -4.19122         4.38563        -0.00000
C          -3.64018         2.99363        -0.00000
H          -4.86840         0.59007        -0.87365
H          -4.91200         0.70184         0.94715
H          -7.30952         0.97698         0.87365
H          -7.24650         1.05227        -0.93538
H          -8.37308         4.14367         0.87365
H          -8.38188         4.14631        -0.86708
H          -4.34112         4.70988        -1.00861
H          -3.50103         5.04245         0.48696
H          -5.12535         4.39945         0.52165
H          -3.02911         2.90298        -0.87365
H          -3.15266         2.92131         0.94973
H          -5.68431         4.93652         0.86999
H          -6.61134         6.14044         0.00729
H          -5.69201         4.94652        -0.87727

