#LAMMPS Input file generated by Avogadro
# Title

# Intialization
units          lj
dimension      3
boundary       p p p
atom_style     full

# Atom Definition
read_data      CH


# Settings
velocity       all create 298.15 4928459 rot yes mom yes dist gaussian
fix            ensemble all nvt temp 298.15 298.15 100 tchain 1

timestep       2.0

# Output
dump           dumpXYZ all xyz 1 Output
thermo_style   one
thermo         50

# Run the simulation
run            50

