#Put Keywords Here, check Charge and Multiplicity.

 

0  1
C          -6.91301         1.45070         0.00000
C          -5.09292         1.16559         0.00000
H          -7.40267         0.62944        -0.48029
H          -7.13237         2.35505        -0.52814
H          -7.26111         1.53319         1.00843
H          -4.74483         1.08309        -1.00843
H          -4.87356         0.26124         0.52814
H          -4.60325         1.98684         0.48029

